100
128
32
21
38
14
45
6
25
28
7
14
57
12
56
63
7
10
22
8
59
9
34
4
42
21
34
6
10
9
55
52
19
17
2
43
11
23
24
15
26
15
2
48
9
12
8
9
24
10
12
27
46
29
17
44
13
16
28
13
40
10
22
2
17
13
22
29
47
54
11
4
32
49
58
16
61
38
15
60
26
15
14
8
16
27
30
28
52
38
20
56
52
29
2
3
47
64
63
34
44
50